cases/pglib-opf/pglib_opf_case30_as.m
ipopt
DCP
[info | PowerModels]: extending matpower format with data: areas 1x3
[warn | PowerModels]: no active generators found at bus 23, updating to bus type from 2 to 1
[warn | PowerModels]: no active generators found at bus 22, updating to bus type from 2 to 1
[warn | PowerModels]: active generators found at bus 11, updating to bus type from 1 to 2
[warn | PowerModels]: active generators found at bus 5, updating to bus type from 1 to 2
[warn | PowerModels]: no active generators found at bus 27, updating to bus type from 2 to 1
[warn | PowerModels]: active generators found at bus 8, updating to bus type from 1 to 2

******************************************************************************
This program contains Ipopt, a library for large-scale nonlinear optimization.
 Ipopt is released as open source code under the Eclipse Public License (EPL).
         For more information visit http://projects.coin-or.org/Ipopt
******************************************************************************

This is Ipopt version 3.13.2, running with linear solver mumps.
NOTE: Other linear solvers might be more efficient (see Ipopt documentation).

Number of nonzeros in equality constraint Jacobian...:      212
Number of nonzeros in inequality constraint Jacobian.:      164
Number of nonzeros in Lagrangian Hessian.............:        6

Total number of variables............................:       77
                     variables with only lower bounds:        0
                variables with lower and upper bounds:       47
                     variables with only upper bounds:        0
Total number of equality constraints.................:       72
Total number of inequality constraints...............:       82
        inequality constraints with only lower bounds:       41
   inequality constraints with lower and upper bounds:        0
        inequality constraints with only upper bounds:       41

iter    objective    inf_pr   inf_du lg(mu)  ||d||  lg(rg) alpha_du alpha_pr  ls
   0  2.9330612e+02 7.89e-01 8.90e+00  -1.0 0.00e+00    -  0.00e+00 0.00e+00   0
   1  8.0884028e+02 8.88e-16 5.92e+01  -1.0 7.91e-01    -  1.63e-02 1.00e+00h  1
   2  7.6924232e+02 8.88e-16 6.55e+00  -1.0 5.95e-01    -  5.87e-01 8.88e-01f  1
   3  7.6946961e+02 4.44e-16 8.78e+00  -1.0 6.34e-02    -  1.00e+00 5.00e-01f  2
   4  7.6871876e+02 1.78e-15 1.00e-06  -1.0 3.21e-02    -  1.00e+00 1.00e+00f  1
   5  7.6787149e+02 1.78e-15 1.42e-01  -2.5 4.57e-02    -  9.40e-01 1.00e+00f  1
   6  7.6766434e+02 1.78e-15 2.83e-08  -2.5 1.59e-02    -  1.00e+00 1.00e+00f  1
   7  7.6760966e+02 1.78e-15 1.50e-09  -3.8 6.33e-03    -  1.00e+00 1.00e+00f  1
   8  7.6760259e+02 1.78e-15 1.84e-11  -5.7 1.41e-03    -  1.00e+00 1.00e+00f  1
   9  7.6760212e+02 1.78e-15 1.84e-11  -5.7 1.63e-04    -  1.00e+00 1.00e+00f  1
iter    objective    inf_pr   inf_du lg(mu)  ||d||  lg(rg) alpha_du alpha_pr  ls
  10  7.6760210e+02 8.88e-16 2.51e-14  -8.6 4.64e-06    -  1.00e+00 1.00e+00f  1

Number of Iterations....: 10

                                   (scaled)                 (unscaled)
Objective...............:   2.3618526137225140e+02    7.6760209945981705e+02
Dual infeasibility......:   2.5059035640133008e-14    8.1441865830432275e-14
Constraint violation....:   8.8817841970012523e-16    8.8817841970012523e-16
Complementarity.........:   3.8641090204786418e-09    1.2558354316555586e-08
Overall NLP error.......:   3.8641090204786418e-09    1.2558354316555586e-08


Number of objective function evaluations             = 13
Number of objective gradient evaluations             = 11
Number of equality constraint evaluations            = 13
Number of inequality constraint evaluations          = 13
Number of equality constraint Jacobian evaluations   = 1
Number of inequality constraint Jacobian evaluations = 1
Number of Lagrangian Hessian evaluations             = 1
Total CPU secs in IPOPT (w/o function evaluations)   =      0.264
Total CPU secs in NLP function evaluations           =      0.226

EXIT: Optimal Solution Found.
Time to Solution........:1.1806511878967285
